data;

set INPUTS := 
X1 X2 X4 X5 X6 X7 X8 X9 X10 X11 X12 X13 X15 X16 X17 X22 X23 X31 X37 X44 X45 X46 X51 X65 X66 X71 X72 X73 X74
;


set OUTPUTS := 
Y1
;


param intercept := 
Y1 2.95117804443232e+26
;

